data/solutions/recovery/degenerate/moderate/flexible/degenerate_moderate_instance6/10.sol
Elapsed time: 0.05
Upper bound: 10544956.0
Planning weighted value: 63792379.0
C[0]=10544956.0
C[1]=10501587.0
C[2]=10472312.0
y[0]=1
y[1]=2
y[2]=2
y[3]=1
y[4]=1
y[5]=0
y[6]=1
y[7]=0
y[8]=2
y[9]=0
y[10]=1
y[11]=0
y[12]=1
y[13]=2
y[14]=2
y[15]=2
y[16]=2
y[17]=0
y[18]=2
y[19]=0
y[20]=1
y[21]=2
y[22]=1
y[23]=0
y[24]=1
y[25]=2
